33D32945 STP File, STP Format Version 1.0

SECTION Comment
Name    "i160-144"
Creator "Cees Duin"
Remark  "Incidence graph"
END

SECTION Graph
Nodes 160
Edges 2544
E 1 13 201
E 1 22 202
E 1 33 203
E 1 44 206
E 1 48 196
E 1 49 196
E 1 50 205
E 1 53 196
E 1 64 200
E 1 71 201
E 1 85 205
E 1 86 199
E 1 89 204
E 1 96 204
E 1 105 200
E 1 109 199
E 1 117 206
E 1 118 201
E 1 126 200
E 1 127 208
E 1 128 199
E 1 142 200
E 2 7 288
E 2 21 196
E 2 22 195
E 2 25 196
E 2 27 200
E 2 34 194
E 2 39 202
E 2 41 192
E 2 43 194
E 2 44 207
E 2 48 202
E 2 53 202
E 2 56 197
E 2 57 206
E 2 58 211
E 2 81 197
E 2 90 202
E 2 96 201
E 2 102 196
E 2 112 196
E 2 116 206
E 2 125 194
E 2 128 207
E 2 130 199
E 2 146 200
E 2 156 194
E 2 157 195
E 2 159 201
E 2 160 207
E 3 9 303
E 3 28 203
E 3 32 202
E 3 33 189
E 3 37 196
E 3 38 199
E 3 39 193
E 3 52 199
E 3 66 202
E 3 73 196
E 3 74 200
E 3 87 199
E 3 90 193
E 3 91 197
E 3 93 200
E 3 110 194
E 3 111 199
E 3 116 204
E 3 122 204
E 3 124 196
E 3 128 194
E 3 130 206
E 3 139 193
E 3 144 195
E 3 149 192
E 3 150 199
E 3 152 201
E 4 14 202
E 4 15 199
E 4 19 202
E 4 22 204
E 4 24 196
E 4 34 196
E 4 41 191
E 4 42 198
E 4 43 203
E 4 45 202
E 4 48 198
E 4 50 204
E 4 59 201
E 4 62 203
E 4 70 204
E 4 81 202
E 4 85 193
E 4 86 199
E 4 92 192
E 4 101 203
E 4 105 192
E 4 107 196
E 4 111 197
E 4 113 199
E 4 114 205
E 4 126 206
E 4 128 194
E 4 133 199
E 4 139 202
E 4 140 197
E 4 144 200
E 4 146 194
E 4 155 198
E 4 159 200
E 5 26 198
E 5 36 197
E 5 49 198
E 5 60 200
E 5 78 201
E 5 79 200
E 5 80 210
E 5 81 202
E 5 82 209
E 5 87 190
E 5 96 200
E 5 97 194
E 5 101 197
E 5 102 204
E 5 103 202
E 5 105 205
E 5 112 210
E 5 117 193
E 5 118 202
E 5 127 189
E 5 132 202
E 5 134 203
E 5 135 194
E 5 146 199
E 5 152 191
E 5 155 195
E 5 156 201
E 5 160 206
E 6 10 306
E 6 14 195
E 6 16 201
E 6 17 201
E 6 24 207
E 6 25 198
E 6 28 193
E 6 29 200
E 6 40 204
E 6 45 194
E 6 49 191
E 6 65 200
E 6 67 200
E 6 76 201
E 6 95 196
E 6 98 203
E 6 102 194
E 6 103 193
E 6 105 201
E 6 107 205
E 6 116 202
E 6 124 203
E 6 141 201
E 6 145 197
E 6 149 202
E 6 150 197
E 6 156 204
E 6 160 205
E 7 10 297
E 7 13 195
E 7 31 200
E 7 32 197
E 7 34 201
E 7 35 199
E 7 40 205
E 7 41 195
E 7 42 196
E 7 43 202
E 7 45 198
E 7 49 200
E 7 50 201
E 7 53 200
E 7 68 198
E 7 75 207
E 7 76 198
E 7 80 199
E 7 81 199
E 7 90 196
E 7 115 204
E 7 119 201
E 7 122 187
E 7 139 199
E 7 142 197
E 7 145 202
E 7 150 208
E 8 11 296
E 8 19 200
E 8 20 189
E 8 21 208
E 8 24 194
E 8 31 201
E 8 33 202
E 8 34 190
E 8 35 185
E 8 39 193
E 8 52 204
E 8 57 198
E 8 59 198
E 8 68 194
E 8 69 203
E 8 78 197
E 8 80 196
E 8 85 195
E 8 88 208
E 8 95 201
E 8 99 193
E 8 100 197
E 8 108 200
E 8 113 196
E 8 115 188
E 8 117 205
E 8 118 204
E 8 120 201
E 8 128 190
E 8 130 201
E 8 134 205
E 8 136 199
E 8 140 189
E 8 143 193
E 8 152 203
E 9 12 297
E 9 13 200
E 9 16 203
E 9 31 192
E 9 33 200
E 9 40 197
E 9 41 199
E 9 45 196
E 9 60 203
E 9 63 192
E 9 85 202
E 9 88 183
E 9 92 201
E 9 105 206
E 9 107 199
E 9 113 194
E 9 115 195
E 9 132 205
E 9 133 212
E 9 134 200
E 9 140 201
E 9 144 194
E 9 145 191
E 9 148 198
E 9 153 201
E 10 17 205
E 10 18 202
E 10 23 199
E 10 25 201
E 10 27 199
E 10 36 206
E 10 44 204
E 10 47 195
E 10 50 201
E 10 51 201
E 10 57 200
E 10 59 204
E 10 60 202
E 10 66 194
E 10 72 198
E 10 95 193
E 10 100 206
E 10 109 191
E 10 119 207
E 10 121 196
E 10 125 203
E 10 127 191
E 10 131 192
E 10 135 203
E 10 149 211
E 10 150 207
E 11 12 295
E 11 20 195
E 11 24 196
E 11 25 208
E 11 49 200
E 11 54 199
E 11 70 203
E 11 74 196
E 11 78 205
E 11 85 200
E 11 91 211
E 11 93 191
E 11 96 209
E 11 104 206
E 11 107 200
E 11 115 204
E 11 117 204
E 11 118 205
E 11 131 203
E 11 134 198
E 11 135 195
E 11 140 201
E 11 144 200
E 11 147 195
E 11 151 209
E 11 153 206
E 11 154 195
E 11 155 202
E 12 26 199
E 12 29 198
E 12 33 189
E 12 35 206
E 12 37 194
E 12 42 199
E 12 44 195
E 12 46 215
E 12 48 199
E 12 62 202
E 12 63 201
E 12 64 194
E 12 67 209
E 12 69 210
E 12 70 199
E 12 80 200
E 12 96 205
E 12 103 195
E 12 105 199
E 12 107 194
E 12 110 191
E 12 112 201
E 12 117 201
E 12 122 191
E 12 124 196
E 12 126 193
E 12 127 206
E 12 131 197
E 12 144 197
E 12 159 196
E 13 19 95
E 13 21 107
E 13 34 101
E 13 37 102
E 13 38 111
E 13 39 104
E 13 40 100
E 13 41 97
E 13 51 107
E 13 58 106
E 13 62 103
E 13 63 94
E 13 72 110
E 13 75 105
E 13 91 93
E 13 94 99
E 13 98 102
E 13 102 100
E 13 104 100
E 13 113 93
E 13 116 101
E 13 119 101
E 13 120 103
E 13 125 108
E 13 126 103
E 13 129 97
E 13 132 102
E 13 133 104
E 13 135 98
E 13 137 108
E 13 139 94
E 13 142 95
E 13 145 106
E 13 147 102
E 13 148 91
E 13 155 101
E 13 157 90
E 14 16 88
E 14 18 109
E 14 24 95
E 14 25 106
E 14 31 111
E 14 36 101
E 14 41 109
E 14 50 102
E 14 54 101
E 14 59 99
E 14 65 100
E 14 93 98
E 14 103 101
E 14 104 96
E 14 109 98
E 14 110 98
E 14 112 95
E 14 114 92
E 14 120 101
E 14 121 97
E 14 125 103
E 14 134 108
E 14 135 96
E 14 138 104
E 14 141 97
E 14 159 85
E 15 19 95
E 15 23 95
E 15 45 105
E 15 46 99
E 15 47 107
E 15 55 95
E 15 56 103
E 15 59 101
E 15 60 92
E 15 64 95
E 15 65 105
E 15 70 98
E 15 71 96
E 15 76 98
E 15 81 97
E 15 83 103
E 15 85 100
E 15 93 88
E 15 103 106
E 15 107 108
E 15 108 100
E 15 112 96
E 15 116 101
E 15 118 97
E 15 122 93
E 15 127 104
E 15 129 99
E 15 130 96
E 15 132 104
E 15 137 95
E 15 138 94
E 15 141 102
E 15 149 105
E 15 150 96
E 15 152 102
E 15 153 99
E 16 17 101
E 16 23 106
E 16 24 98
E 16 29 96
E 16 39 104
E 16 40 102
E 16 41 101
E 16 46 102
E 16 51 105
E 16 57 98
E 16 59 98
E 16 60 92
E 16 62 102
E 16 71 98
E 16 72 109
E 16 90 96
E 16 93 96
E 16 98 93
E 16 101 97
E 16 103 98
E 16 111 102
E 16 112 101
E 16 115 101
E 16 119 101
E 16 121 111
E 16 126 101
E 16 142 104
E 16 143 112
E 16 149 93
E 16 150 105
E 16 153 110
E 16 156 99
E 17 20 92
E 17 23 88
E 17 33 95
E 17 37 100
E 17 38 101
E 17 39 104
E 17 45 99
E 17 48 101
E 17 50 103
E 17 52 102
E 17 55 97
E 17 64 102
E 17 68 104
E 17 76 103
E 17 81 102
E 17 83 101
E 17 100 96
E 17 106 106
E 17 109 99
E 17 110 96
E 17 120 104
E 17 121 93
E 17 129 105
E 17 130 95
E 17 132 102
E 17 136 99
E 17 143 91
E 17 149 95
E 17 151 97
E 17 152 98
E 18 28 101
E 18 32 103
E 18 38 98
E 18 39 99
E 18 40 98
E 18 46 95
E 18 50 95
E 18 54 107
E 18 58 96
E 18 59 98
E 18 65 105
E 18 69 105
E 18 77 105
E 18 87 100
E 18 92 105
E 18 100 98
E 18 107 98
E 18 110 102
E 18 113 110
E 18 123 105
E 18 127 96
E 18 129 92
E 18 131 87
E 18 140 96
E 18 141 91
E 18 144 98
E 18 145 97
E 18 147 98
E 18 149 100
E 18 153 99
E 19 20 101
E 19 23 94
E 19 36 100
E 19 40 95
E 19 41 103
E 19 44 91
E 19 47 97
E 19 50 104
E 19 51 104
E 19 55 99
E 19 63 93
E 19 68 99
E 19 69 108
E 19 74 92
E 19 75 81
E 19 82 99
E 19 85 106
E 19 86 94
E 19 90 98
E 19 93 98
E 19 94 99
E 19 95 107
E 19 97 106
E 19 103 100
E 19 104 99
E 19 113 102
E 19 116 93
E 19 123 105
E 19 126 102
E 19 129 90
E 19 143 98
E 19 152 100
E 19 159 104
E 20 24 99
E 20 35 100
E 20 46 100
E 20 50 96
E 20 70 91
E 20 73 105
E 20 81 91
E 20 96 99
E 20 102 92
E 20 104 100
E 20 105 105
E 20 116 95
E 20 119 105
E 20 123 104
E 20 128 104
E 20 131 104
E 20 132 97
E 20 133 94
E 20 135 96
E 20 145 101
E 20 150 94
E 20 159 103
E 21 28 92
E 21 30 99
E 21 45 97
E 21 47 103
E 21 52 106
E 21 56 104
E 21 59 109
E 21 66 100
E 21 75 107
E 21 77 98
E 21 84 103
E 21 88 103
E 21 91 94
E 21 92 101
E 21 93 100
E 21 97 100
E 21 100 105
E 21 107 101
E 21 108 95
E 21 111 111
E 21 119 97
E 21 122 98
E 21 124 111
E 21 144 99
E 21 149 95
E 21 154 94
E 21 157 92
E 22 23 100
E 22 30 111
E 22 36 103
E 22 37 99
E 22 41 100
E 22 58 93
E 22 62 95
E 22 69 102
E 22 70 102
E 22 81 96
E 22 91 101
E 22 92 90
E 22 103 93
E 22 108 104
E 22 118 104
E 22 121 100
E 22 126 97
E 22 134 94
E 22 138 100
E 22 141 100
E 22 143 94
E 22 144 102
E 22 148 97
E 22 149 96
E 22 158 97
E 22 160 96
E 23 37 103
E 23 38 104
E 23 40 105
E 23 48 109
E 23 50 102
E 23 52 102
E 23 55 97
E 23 58 101
E 23 65 96
E 23 66 112
E 23 67 100
E 23 71 105
E 23 76 99
E 23 77 110
E 23 78 110
E 23 80 101
E 23 82 106
E 23 94 93
E 23 97 115
E 23 111 98
E 23 119 105
E 23 120 93
E 23 127 103
E 23 135 110
E 23 144 98
E 23 160 94
E 24 26 103
E 24 29 101
E 24 31 105
E 24 33 100
E 24 39 98
E 24 44 104
E 24 52 98
E 24 56 101
E 24 62 101
E 24 75 94
E 24 87 99
E 24 89 96
E 24 91 99
E 24 102 92
E 24 106 89
E 24 112 94
E 24 118 100
E 24 124 92
E 24 126 95
E 24 129 105
E 24 131 100
E 24 145 96
E 24 149 93
E 24 153 91
E 24 156 98
E 25 37 98
E 25 41 104
E 25 47 110
E 25 49 105
E 25 50 99
E 25 56 98
E 25 60 107
E 25 71 89
E 25 72 99
E 25 77 95
E 25 103 101
E 25 106 101
E 25 110 105
E 25 111 97
E 25 119 105
E 25 120 104
E 25 131 88
E 25 142 91
E 25 145 95
E 25 150 104
E 25 153 94
E 25 155 94
E 26 27 100
E 26 32 104
E 26 34 100
E 26 37 110
E 26 39 95
E 26 43 91
E 26 56 103
E 26 57 103
E 26 77 103
E 26 82 99
E 26 86 92
E 26 87 106
E 26 88 97
E 26 91 104
E 26 95 94
E 26 96 99
E 26 97 96
E 26 104 98
E 26 117 100
E 26 120 100
E 26 122 104
E 26 132 105
E 26 133 101
E 26 140 106
E 26 143 96
E 26 147 104
E 26 156 110
E 27 34 94
E 27 38 97
E 27 44 100
E 27 45 96
E 27 57 100
E 27 71 95
E 27 77 91
E 27 78 99
E 27 80 97
E 27 81 95
E 27 82 103
E 27 85 92
E 27 87 97
E 27 90 106
E 27 95 102
E 27 96 100
E 27 103 106
E 27 106 105
E 27 110 98
E 27 114 103
E 27 115 112
E 27 128 95
E 27 146 102
E 27 148 109
E 27 151 95
E 27 152 102
E 27 153 99
E 27 155 100
E 27 160 97
E 28 29 103
E 28 32 95
E 28 33 99
E 28 36 104
E 28 37 97
E 28 41 96
E 28 48 99
E 28 51 89
E 28 55 89
E 28 62 100
E 28 64 101
E 28 71 101
E 28 76 98
E 28 78 103
E 28 81 89
E 28 84 99
E 28 87 104
E 28 93 105
E 28 102 102
E 28 109 93
E 28 110 103
E 28 111 98
E 28 114 95
E 28 134 103
E 28 144 92
E 28 147 102
E 28 153 102
E 28 154 103
E 28 156 98
E 29 36 91
E 29 38 96
E 29 42 91
E 29 49 100
E 29 55 95
E 29 57 105
E 29 66 88
E 29 68 106
E 29 70 94
E 29 76 98
E 29 77 96
E 29 79 108
E 29 84 103
E 29 90 99
E 29 92 98
E 29 98 98
E 29 103 99
E 29 105 97
E 29 107 108
E 29 109 98
E 29 114 89
E 29 115 97
E 29 125 94
E 29 127 101
E 29 130 107
E 29 132 99
E 29 135 95
E 29 138 107
E 29 148 94
E 29 149 95
E 29 151 89
E 29 152 93
E 29 153 97
E 29 156 103
E 29 159 107
E 30 36 104
E 30 42 95
E 30 45 96
E 30 55 96
E 30 58 92
E 30 60 92
E 30 61 102
E 30 62 95
E 30 66 99
E 30 70 104
E 30 71 97
E 30 88 102
E 30 91 91
E 30 93 107
E 30 96 95
E 30 97 96
E 30 98 93
E 30 116 92
E 30 125 96
E 30 129 103
E 30 131 104
E 30 135 102
E 30 136 98
E 30 139 106
E 30 146 98
E 30 149 90
E 30 152 100
E 30 160 104
E 31 39 93
E 31 41 99
E 31 43 101
E 31 46 91
E 31 47 99
E 31 49 101
E 31 54 108
E 31 59 100
E 31 66 97
E 31 69 111
E 31 74 96
E 31 77 101
E 31 80 96
E 31 83 102
E 31 84 102
E 31 85 96
E 31 86 89
E 31 89 96
E 31 91 99
E 31 92 97
E 31 99 99
E 31 104 103
E 31 106 96
E 31 110 105
E 31 116 92
E 31 118 100
E 31 119 97
E 31 129 103
E 31 130 95
E 31 135 111
E 31 137 104
E 31 142 98
E 31 144 99
E 31 149 101
E 31 150 103
E 31 154 105
E 31 155 95
E 31 159 99
E 32 33 103
E 32 42 98
E 32 46 98
E 32 50 101
E 32 52 100
E 32 55 100
E 32 60 96
E 32 62 108
E 32 74 97
E 32 87 102
E 32 89 105
E 32 92 105
E 32 93 102
E 32 102 103
E 32 103 96
E 32 128 98
E 32 131 105
E 32 137 96
E 32 147 98
E 32 149 95
E 32 153 94
E 33 39 99
E 33 40 103
E 33 41 102
E 33 51 98
E 33 59 95
E 33 61 99
E 33 62 110
E 33 63 107
E 33 69 101
E 33 71 101
E 33 74 90
E 33 75 104
E 33 80 102
E 33 85 99
E 33 87 93
E 33 91 96
E 33 93 110
E 33 98 100
E 33 103 94
E 33 109 86
E 33 110 102
E 33 114 102
E 33 115 103
E 33 118 101
E 33 126 102
E 33 128 109
E 33 130 99
E 33 131 102
E 33 148 96
E 33 150 96
E 33 151 102
E 33 154 102
E 33 156 98
E 33 157 97
E 33 158 94
E 34 42 99
E 34 49 94
E 34 54 98
E 34 57 107
E 34 59 102
E 34 62 96
E 34 63 92
E 34 66 105
E 34 74 92
E 34 78 100
E 34 79 109
E 34 88 98
E 34 101 96
E 34 114 94
E 34 132 99
E 34 135 96
E 34 136 92
E 34 139 101
E 34 140 96
E 34 141 103
E 34 144 107
E 34 152 97
E 34 155 106
E 34 157 99
E 34 160 99
E 35 42 104
E 35 46 92
E 35 51 102
E 35 53 94
E 35 54 109
E 35 58 100
E 35 62 105
E 35 63 96
E 35 65 104
E 35 72 98
E 35 81 102
E 35 82 91
E 35 84 95
E 35 85 98
E 35 89 102
E 35 90 103
E 35 94 102
E 35 99 101
E 35 102 100
E 35 104 97
E 35 106 95
E 35 111 99
E 35 112 99
E 35 114 119
E 35 119 105
E 35 121 111
E 35 122 102
E 35 123 103
E 35 124 104
E 35 131 104
E 35 132 93
E 35 134 95
E 35 137 103
E 35 144 90
E 35 151 99
E 35 152 103
E 35 156 105
E 35 157 102
E 36 37 102
E 36 38 97
E 36 43 102
E 36 55 101
E 36 56 101
E 36 57 94
E 36 61 101
E 36 68 104
E 36 71 98
E 36 82 105
E 36 86 110
E 36 88 93
E 36 92 102
E 36 99 95
E 36 106 100
E 36 108 104
E 36 113 106
E 36 118 98
E 36 121 96
E 36 124 93
E 36 125 109
E 36 128 96
E 36 141 101
E 36 146 99
E 36 147 103
E 36 150 99
E 36 154 96
E 36 158 100
E 37 39 92
E 37 59 99
E 37 64 102
E 37 65 90
E 37 67 97
E 37 75 97
E 37 77 99
E 37 90 103
E 37 104 107
E 37 107 98
E 37 111 107
E 37 114 92
E 37 116 104
E 37 121 100
E 37 129 96
E 37 134 93
E 37 140 100
E 37 147 100
E 37 149 100
E 37 150 108
E 37 153 104
E 38 40 102
E 38 43 106
E 38 56 91
E 38 63 104
E 38 65 98
E 38 70 105
E 38 80 100
E 38 81 93
E 38 85 101
E 38 87 101
E 38 89 83
E 38 94 99
E 38 110 87
E 38 114 105
E 38 115 101
E 38 117 102
E 38 118 100
E 38 123 101
E 38 131 95
E 38 135 96
E 38 140 103
E 38 146 104
E 38 155 95
E 38 157 101
E 38 158 95
E 38 160 102
E 39 45 91
E 39 46 93
E 39 49 100
E 39 51 94
E 39 56 91
E 39 62 92
E 39 67 96
E 39 71 109
E 39 72 97
E 39 80 106
E 39 83 96
E 39 92 99
E 39 99 95
E 39 101 98
E 39 104 87
E 39 110 111
E 39 117 102
E 39 123 100
E 39 127 102
E 39 133 95
E 39 138 101
E 39 140 92
E 39 147 101
E 40 53 104
E 40 54 105
E 40 55 100
E 40 61 98
E 40 66 92
E 40 68 102
E 40 72 90
E 40 73 101
E 40 75 107
E 40 77 102
E 40 79 104
E 40 81 99
E 40 83 93
E 40 96 98
E 40 99 109
E 40 100 99
E 40 114 103
E 40 115 90
E 40 129 107
E 40 132 97
E 40 140 98
E 40 141 95
E 40 151 99
E 40 155 98
E 41 43 106
E 41 45 103
E 41 48 105
E 41 49 91
E 41 50 110
E 41 51 113
E 41 60 97
E 41 67 99
E 41 68 92
E 41 84 93
E 41 95 98
E 41 102 108
E 41 106 100
E 41 111 92
E 41 112 102
E 41 113 98
E 41 119 101
E 41 120 105
E 41 121 96
E 41 123 94
E 41 129 104
E 41 143 93
E 41 156 105
E 41 159 99
E 42 45 108
E 42 47 97
E 42 53 97
E 42 59 99
E 42 60 100
E 42 62 96
E 42 65 102
E 42 84 97
E 42 86 88
E 42 92 101
E 42 96 96
E 42 101 105
E 42 102 100
E 42 104 101
E 42 113 95
E 42 115 108
E 42 117 107
E 42 118 104
E 42 119 96
E 42 140 100
E 42 147 97
E 42 155 82
E 42 156 97
E 43 45 103
E 43 47 96
E 43 60 99
E 43 67 94
E 43 68 104
E 43 74 97
E 43 78 95
E 43 79 108
E 43 82 98
E 43 92 92
E 43 103 97
E 43 107 105
E 43 112 107
E 43 117 100
E 43 124 106
E 43 130 101
E 43 131 100
E 43 141 93
E 43 146 103
E 43 151 110
E 43 152 104
E 43 154 100
E 43 157 104
E 43 160 100
E 44 46 102
E 44 51 101
E 44 57 96
E 44 58 101
E 44 60 109
E 44 76 98
E 44 78 102
E 44 79 109
E 44 80 105
E 44 82 109
E 44 87 99
E 44 90 103
E 44 92 111
E 44 96 90
E 44 97 98
E 44 115 93
E 44 117 102
E 44 124 102
E 44 126 104
E 44 146 98
E 44 149 96
E 44 150 98
E 44 153 98
E 44 156 101
E 45 50 105
E 45 51 99
E 45 55 96
E 45 59 97
E 45 66 98
E 45 69 95
E 45 77 98
E 45 84 102
E 45 88 105
E 45 89 95
E 45 92 105
E 45 102 99
E 45 104 99
E 45 111 89
E 45 113 96
E 45 115 96
E 45 125 104
E 45 136 102
E 45 157 106
E 45 159 101
E 46 49 101
E 46 51 104
E 46 77 102
E 46 79 93
E 46 83 105
E 46 88 94
E 46 91 104
E 46 93 106
E 46 96 92
E 46 101 99
E 46 106 101
E 46 117 93
E 46 118 103
E 46 124 99
E 46 129 96
E 46 131 99
E 46 140 98
E 46 145 100
E 46 148 98
E 46 149 101
E 47 54 102
E 47 59 104
E 47 62 104
E 47 66 95
E 47 72 101
E 47 74 94
E 47 75 101
E 47 78 104
E 47 80 92
E 47 92 105
E 47 93 100
E 47 96 96
E 47 98 89
E 47 106 101
E 47 121 103
E 47 150 94
E 47 153 104
E 47 155 95
E 48 63 97
E 48 69 106
E 48 70 104
E 48 71 102
E 48 74 101
E 48 76 98
E 48 84 98
E 48 86 93
E 48 94 92
E 48 96 91
E 48 101 95
E 48 115 95
E 48 122 99
E 48 126 97
E 48 131 111
E 48 134 90
E 48 141 96
E 48 145 98
E 48 154 104
E 49 56 107
E 49 69 101
E 49 81 98
E 49 82 96
E 49 90 103
E 49 92 99
E 49 98 102
E 49 104 98
E 49 107 97
E 49 116 93
E 49 119 98
E 49 121 99
E 49 128 99
E 49 132 94
E 49 140 108
E 49 158 97
E 50 57 101
E 50 60 99
E 50 67 105
E 50 74 108
E 50 87 103
E 50 89 102
E 50 94 102
E 50 104 96
E 50 107 92
E 50 112 103
E 50 119 105
E 50 148 93
E 50 156 99
E 50 159 102
E 51 69 96
E 51 70 97
E 51 72 99
E 51 75 94
E 51 76 108
E 51 77 106
E 51 78 111
E 51 80 99
E 51 82 111
E 51 88 96
E 51 90 106
E 51 92 104
E 51 93 104
E 51 95 102
E 51 102 97
E 51 104 98
E 51 107 98
E 51 113 99
E 51 114 99
E 51 117 113
E 51 131 108
E 51 133 100
E 51 140 96
E 51 141 106
E 51 142 82
E 51 144 103
E 51 147 108
E 51 154 99
E 51 155 104
E 51 156 93
E 52 59 105
E 52 60 102
E 52 62 96
E 52 67 101
E 52 69 101
E 52 71 105
E 52 76 91
E 52 84 109
E 52 85 103
E 52 90 98
E 52 91 98
E 52 94 99
E 52 101 100
E 52 108 102
E 52 117 104
E 52 121 98
E 52 127 101
E 52 129 93
E 52 130 98
E 52 140 99
E 52 145 95
E 52 153 95
E 52 154 93
E 53 57 106
E 53 59 95
E 53 65 92
E 53 81 98
E 53 83 104
E 53 86 101
E 53 92 97
E 53 93 93
E 53 95 100
E 53 99 111
E 53 100 88
E 53 102 97
E 53 104 103
E 53 116 104
E 53 118 100
E 53 126 95
E 53 130 100
E 53 136 98
E 53 137 105
E 53 143 103
E 53 144 100
E 53 152 94
E 53 153 98
E 53 154 100
E 53 155 93
E 54 57 105
E 54 58 107
E 54 59 105
E 54 64 94
E 54 67 102
E 54 70 92
E 54 76 99
E 54 78 104
E 54 80 101
E 54 81 100
E 54 89 99
E 54 91 100
E 54 95 108
E 54 103 100
E 54 104 91
E 54 112 99
E 54 115 96
E 54 117 100
E 54 119 98
E 54 120 100
E 54 125 97
E 54 127 100
E 54 136 106
E 54 144 104
E 54 149 96
E 54 151 100
E 55 56 95
E 55 61 101
E 55 68 101
E 55 76 106
E 55 77 104
E 55 81 106
E 55 82 97
E 55 84 101
E 55 93 98
E 55 95 98
E 55 97 96
E 55 104 102
E 55 109 103
E 55 111 103
E 55 116 105
E 55 120 103
E 55 131 98
E 55 137 106
E 55 142 104
E 55 152 96
E 55 154 104
E 55 158 100
E 55 160 105
E 56 57 105
E 56 65 101
E 56 70 94
E 56 77 93
E 56 83 102
E 56 86 108
E 56 88 97
E 56 101 101
E 56 102 92
E 56 109 107
E 56 113 101
E 56 118 96
E 56 121 91
E 56 126 97
E 56 132 97
E 56 139 96
E 56 144 96
E 56 149 101
E 56 150 108
E 56 153 101
E 56 154 103
E 56 159 96
E 57 61 103
E 57 66 106
E 57 72 99
E 57 75 105
E 57 80 93
E 57 84 97
E 57 85 98
E 57 89 98
E 57 92 101
E 57 102 103
E 57 111 108
E 57 115 111
E 57 131 97
E 57 136 94
E 57 137 100
E 57 141 108
E 57 145 99
E 57 149 101
E 57 156 99
E 57 157 99
E 57 158 96
E 57 159 105
E 58 59 107
E 58 60 93
E 58 65 97
E 58 68 99
E 58 71 97
E 58 73 98
E 58 96 99
E 58 99 98
E 58 115 102
E 58 118 94
E 58 122 99
E 58 124 100
E 58 132 92
E 58 134 100
E 58 137 98
E 58 138 98
E 58 146 95
E 58 153 98
E 58 155 94
E 58 160 101
E 59 60 105
E 59 65 103
E 59 66 95
E 59 72 91
E 59 73 106
E 59 76 100
E 59 77 100
E 59 79 94
E 59 89 93
E 59 92 102
E 59 97 100
E 59 100 112
E 59 102 103
E 59 110 95
E 59 111 103
E 59 112 106
E 59 116 108
E 59 118 107
E 59 124 96
E 59 128 104
E 59 131 94
E 59 147 101
E 59 149 101
E 59 152 96
E 59 156 104
E 60 62 102
E 60 68 97
E 60 69 97
E 60 78 104
E 60 81 95
E 60 87 105
E 60 88 104
E 60 92 97
E 60 100 101
E 60 105 94
E 60 106 99
E 60 107 97
E 60 110 102
E 60 114 100
E 60 117 101
E 60 138 102
E 60 154 98
E 60 159 104
E 61 69 96
E 61 73 102
E 61 74 88
E 61 76 97
E 61 80 100
E 61 87 87
E 61 94 93
E 61 95 100
E 61 96 98
E 61 99 97
E 61 101 100
E 61 103 95
E 61 112 103
E 61 122 105
E 61 128 96
E 61 129 95
E 61 134 96
E 61 135 103
E 61 136 97
E 61 140 97
E 61 146 97
E 62 63 99
E 62 66 99
E 62 72 96
E 62 73 100
E 62 75 99
E 62 76 99
E 62 78 99
E 62 83 100
E 62 95 99
E 62 103 98
E 62 111 100
E 62 127 96
E 62 132 99
E 62 138 100
E 62 139 95
E 62 143 95
E 62 147 98
E 62 148 100
E 63 80 102
E 63 83 94
E 63 84 107
E 63 94 103
E 63 96 102
E 63 99 99
E 63 109 98
E 63 112 93
E 63 115 103
E 63 117 100
E 63 119 102
E 63 122 100
E 63 127 97
E 63 130 102
E 63 150 97
E 63 158 101
E 63 159 99
E 64 71 96
E 64 97 106
E 64 101 114
E 64 106 105
E 64 112 100
E 64 114 98
E 64 122 93
E 64 126 103
E 64 128 106
E 64 132 102
E 64 133 97
E 64 141 91
E 64 147 110
E 64 149 104
E 64 151 97
E 64 157 93
E 65 69 99
E 65 76 101
E 65 79 103
E 65 81 96
E 65 82 99
E 65 84 94
E 65 86 103
E 65 88 100
E 65 92 96
E 65 99 101
E 65 104 99
E 65 116 95
E 65 119 101
E 65 128 92
E 65 135 102
E 65 150 100
E 65 152 102
E 66 67 100
E 66 77 95
E 66 78 102
E 66 80 96
E 66 83 99
E 66 96 104
E 66 97 103
E 66 101 100
E 66 104 108
E 66 107 102
E 66 109 99
E 66 111 99
E 66 112 99
E 66 115 100
E 66 121 95
E 66 125 93
E 66 126 102
E 66 137 99
E 66 138 101
E 66 139 98
E 66 155 96
E 66 158 104
E 67 83 106
E 67 91 103
E 67 139 97
E 67 143 106
E 67 149 102
E 67 152 96
E 67 159 95
E 68 76 96
E 68 80 97
E 68 81 108
E 68 82 99
E 68 83 96
E 68 87 99
E 68 92 96
E 68 97 103
E 68 98 101
E 68 117 106
E 68 128 100
E 68 129 102
E 68 139 96
E 68 141 96
E 68 142 105
E 68 147 105
E 68 156 107
E 69 70 98
E 69 78 98
E 69 80 98
E 69 83 96
E 69 84 93
E 69 87 101
E 69 88 96
E 69 97 97
E 69 106 88
E 69 116 94
E 69 125 108
E 69 131 97
E 69 135 99
E 69 141 105
E 69 142 101
E 69 153 103
E 70 79 100
E 70 85 99
E 70 86 98
E 70 87 94
E 70 89 107
E 70 104 106
E 70 105 106
E 70 112 104
E 70 113 96
E 70 120 96
E 70 123 100
E 70 134 95
E 70 146 99
E 70 150 103
E 70 159 96
E 70 160 99
E 71 89 103
E 71 95 96
E 71 96 99
E 71 100 94
E 71 101 98
E 71 104 97
E 71 106 105
E 71 119 114
E 71 122 96
E 71 129 98
E 71 131 108
E 71 132 104
E 71 139 103
E 71 145 92
E 71 151 98
E 71 153 90
E 71 154 92
E 72 75 94
E 72 98 98
E 72 100 109
E 72 101 100
E 72 108 106
E 72 123 94
E 72 124 102
E 72 130 95
E 72 134 93
E 72 138 96
E 72 139 96
E 72 150 107
E 72 155 102
E 72 158 102
E 73 83 106
E 73 89 89
E 73 91 100
E 73 93 102
E 73 101 98
E 73 110 105
E 73 131 97
E 73 134 110
E 73 135 99
E 73 140 94
E 73 150 96
E 73 155 98
E 74 75 107
E 74 79 100
E 74 80 104
E 74 82 99
E 74 83 106
E 74 84 107
E 74 86 94
E 74 87 104
E 74 89 98
E 74 95 99
E 74 101 103
E 74 105 99
E 74 108 101
E 74 120 92
E 74 127 100
E 74 135 106
E 74 141 95
E 74 143 106
E 74 147 98
E 74 148 101
E 74 151 101
E 74 154 93
E 74 156 103
E 75 77 106
E 75 90 114
E 75 91 101
E 75 93 105
E 75 94 101
E 75 99 91
E 75 115 89
E 75 116 104
E 75 123 99
E 75 126 87
E 75 127 108
E 75 131 105
E 75 133 100
E 75 137 101
E 75 138 94
E 75 142 98
E 75 144 104
E 75 151 99
E 75 158 91
E 76 80 100
E 76 83 98
E 76 89 91
E 76 96 99
E 76 103 103
E 76 123 103
E 76 124 97
E 76 130 103
E 76 131 98
E 76 134 92
E 76 135 109
E 76 136 100
E 76 146 104
E 76 150 92
E 77 91 98
E 77 93 99
E 77 104 101
E 77 106 96
E 77 115 97
E 77 119 97
E 77 120 104
E 77 124 100
E 77 126 97
E 77 128 103
E 77 137 94
E 77 142 97
E 77 143 87
E 77 144 93
E 77 147 100
E 77 160 101
E 78 89 98
E 78 95 103
E 78 98 106
E 78 103 88
E 78 118 103
E 78 121 103
E 78 123 92
E 78 129 101
E 78 131 99
E 78 141 96
E 78 143 99
E 78 154 103
E 79 95 99
E 79 96 97
E 79 105 98
E 79 106 97
E 79 115 100
E 79 129 99
E 79 131 101
E 79 134 96
E 79 141 93
E 79 144 104
E 79 145 96
E 79 149 103
E 79 153 98
E 79 155 99
E 79 160 101
E 80 90 99
E 80 92 98
E 80 93 98
E 80 100 96
E 80 106 104
E 80 116 114
E 80 126 109
E 80 127 105
E 80 133 95
E 80 148 107
E 81 98 96
E 81 100 98
E 81 102 94
E 81 104 105
E 81 113 93
E 81 115 95
E 81 116 93
E 81 122 100
E 81 132 98
E 81 133 96
E 81 135 101
E 81 145 101
E 81 154 104
E 81 155 102
E 82 84 94
E 82 88 102
E 82 94 107
E 82 99 104
E 82 107 104
E 82 110 104
E 82 116 97
E 82 117 99
E 82 118 93
E 82 119 96
E 82 121 105
E 82 127 104
E 82 130 107
E 82 132 95
E 82 134 99
E 82 149 92
E 82 150 104
E 82 153 100
E 82 157 108
E 83 103 101
E 83 106 97
E 83 116 91
E 83 120 96
E 83 123 106
E 83 126 94
E 83 128 101
E 83 132 99
E 83 140 99
E 83 142 99
E 83 144 106
E 83 147 102
E 83 149 104
E 83 151 93
E 83 159 98
E 83 160 100
E 84 85 96
E 84 90 97
E 84 92 99
E 84 94 101
E 84 98 104
E 84 103 112
E 84 104 98
E 84 105 102
E 84 107 96
E 84 114 100
E 84 115 93
E 84 117 103
E 84 122 103
E 84 135 108
E 84 143 104
E 84 144 106
E 85 88 91
E 85 90 97
E 85 100 106
E 85 105 98
E 85 108 103
E 85 111 100
E 85 112 106
E 85 115 93
E 85 121 97
E 85 122 88
E 85 123 99
E 85 124 90
E 85 127 106
E 85 128 97
E 85 131 98
E 85 145 102
E 85 158 97
E 85 159 100
E 86 92 93
E 86 93 101
E 86 94 93
E 86 97 102
E 86 99 100
E 86 121 96
E 86 125 100
E 86 126 98
E 86 127 107
E 86 135 105
E 86 150 97
E 86 151 104
E 86 153 111
E 86 154 105
E 86 155 105
E 86 159 96
E 87 88 96
E 87 89 108
E 87 90 92
E 87 98 88
E 87 101 98
E 87 105 101
E 87 119 96
E 87 121 102
E 87 122 90
E 87 124 98
E 87 129 98
E 87 141 102
E 87 152 92
E 87 157 106
E 87 158 108
E 88 95 99
E 88 96 98
E 88 100 109
E 88 106 94
E 88 108 105
E 88 113 93
E 88 115 95
E 88 120 98
E 88 131 100
E 88 143 100
E 88 149 102
E 88 158 109
E 88 159 95
E 88 160 96
E 89 97 95
E 89 99 93
E 89 103 107
E 89 105 91
E 89 106 97
E 89 110 97
E 89 121 97
E 89 126 99
E 89 129 97
E 89 138 93
E 89 144 86
E 89 150 103
E 89 156 104
E 90 119 100
E 90 121 103
E 90 124 102
E 90 130 101
E 90 137 104
E 90 140 100
E 90 152 103
E 90 156 105
E 90 159 93
E 91 96 106
E 91 100 105
E 91 103 96
E 91 109 100
E 91 111 99
E 91 116 96
E 91 118 99
E 91 128 96
E 91 130 98
E 91 135 99
E 91 150 100
E 91 154 93
E 91 155 92
E 91 157 97
E 91 158 97
E 92 94 102
E 92 98 92
E 92 100 99
E 92 101 105
E 92 103 104
E 92 104 101
E 92 106 95
E 92 107 107
E 92 109 98
E 92 115 96
E 92 122 106
E 92 126 100
E 92 128 96
E 92 133 94
E 92 149 102
E 92 151 99
E 92 157 106
E 92 158 101
E 93 101 104
E 93 116 100
E 93 121 105
E 93 123 113
E 93 140 96
E 93 141 95
E 93 149 100
E 93 155 102
E 93 156 102
E 94 95 97
E 94 99 101
E 94 103 92
E 94 105 103
E 94 123 98
E 94 126 104
E 94 128 104
E 94 130 99
E 94 137 97
E 94 140 95
E 94 141 91
E 94 148 101
E 94 152 105
E 94 153 95
E 94 159 103
E 95 96 97
E 95 100 100
E 95 105 92
E 95 110 106
E 95 121 102
E 95 125 98
E 95 126 102
E 95 132 93
E 95 134 91
E 95 137 94
E 95 142 99
E 95 143 99
E 95 146 94
E 95 160 100
E 96 100 107
E 96 107 100
E 96 109 101
E 96 113 92
E 96 119 96
E 96 123 91
E 96 125 93
E 96 141 103
E 96 145 103
E 96 150 99
E 96 154 99
E 96 157 98
E 97 100 100
E 97 101 97
E 97 102 106
E 97 106 106
E 97 109 104
E 97 112 99
E 97 113 96
E 97 114 99
E 97 121 101
E 97 124 102
E 97 126 104
E 97 130 101
E 97 145 98
E 97 147 94
E 97 148 100
E 97 149 97
E 97 156 112
E 97 158 98
E 98 107 97
E 98 112 109
E 98 119 104
E 98 126 104
E 98 131 99
E 98 132 99
E 98 133 88
E 98 135 102
E 98 138 106
E 98 142 97
E 98 159 103
E 99 101 105
E 99 106 98
E 99 113 97
E 99 126 97
E 99 131 106
E 99 132 101
E 99 133 108
E 99 138 96
E 99 145 104
E 99 158 96
E 99 159 91
E 100 105 103
E 100 106 102
E 100 109 97
E 100 117 96
E 100 129 95
E 100 130 97
E 100 132 101
E 100 135 99
E 100 141 100
E 100 152 103
E 100 158 98
E 100 160 96
E 101 108 97
E 101 115 98
E 101 119 97
E 101 123 89
E 101 124 102
E 101 126 104
E 101 139 102
E 101 142 102
E 101 148 104
E 101 156 95
E 101 159 105
E 102 103 101
E 102 109 100
E 102 111 105
E 102 113 95
E 102 117 103
E 102 118 93
E 102 120 96
E 102 121 99
E 102 127 93
E 102 128 96
E 102 136 89
E 102 139 101
E 102 142 95
E 102 145 95
E 102 160 97
E 103 108 106
E 103 117 106
E 103 119 93
E 103 126 95
E 103 132 102
E 103 136 98
E 103 137 96
E 103 144 109
E 103 146 97
E 103 151 96
E 104 120 93
E 104 124 104
E 104 125 97
E 104 134 94
E 104 143 102
E 104 145 101
E 104 155 93
E 104 160 93
E 105 115 101
E 105 116 94
E 105 121 102
E 105 122 98
E 105 123 103
E 105 129 98
E 105 130 110
E 105 138 103
E 105 139 100
E 105 149 103
E 105 153 91
E 105 154 106
E 105 157 95
E 106 121 104
E 106 124 104
E 106 128 102
E 106 134 96
E 106 135 89
E 106 153 101
E 106 158 109
E 107 110 91
E 107 113 105
E 107 126 98
E 107 127 99
E 107 133 97
E 107 134 100
E 107 137 99
E 107 138 105
E 107 142 102
E 107 149 98
E 107 152 95
E 107 153 105
E 107 158 98
E 107 159 102
E 107 160 97
E 108 111 96
E 108 112 100
E 108 118 98
E 108 127 104
E 108 129 101
E 108 138 98
E 108 143 105
E 108 146 99
E 108 147 102
E 108 151 103
E 108 152 108
E 108 155 107
E 109 110 100
E 109 124 110
E 109 129 97
E 109 133 93
E 109 134 95
E 109 137 103
E 109 138 105
E 109 142 92
E 109 145 93
E 109 152 99
E 109 153 94
E 109 159 98
E 109 160 102
E 110 111 107
E 110 125 96
E 110 127 101
E 110 142 94
E 110 150 94
E 110 152 103
E 110 153 102
E 110 155 99
E 111 113 103
E 111 114 99
E 111 119 97
E 111 122 99
E 111 138 101
E 111 139 102
E 112 116 105
E 112 117 88
E 112 127 102
E 112 128 94
E 112 129 97
E 112 131 98
E 112 136 102
E 112 137 100
E 112 142 100
E 112 143 91
E 112 144 98
E 112 146 93
E 112 150 100
E 112 156 106
E 112 159 100
E 113 115 96
E 113 118 93
E 113 119 95
E 113 120 107
E 113 122 100
E 113 129 93
E 113 132 101
E 113 137 101
E 113 138 99
E 113 143 108
E 113 145 98
E 113 147 95
E 113 150 96
E 113 151 96
E 113 154 106
E 113 155 94
E 114 119 95
E 114 123 105
E 114 128 98
E 114 139 103
E 114 150 105
E 114 154 109
E 115 121 92
E 115 126 98
E 115 135 100
E 115 136 101
E 115 138 109
E 115 139 92
E 115 141 97
E 115 142 95
E 115 145 97
E 115 146 107
E 115 152 95
E 115 153 89
E 115 158 100
E 115 160 100
E 116 118 101
E 116 123 99
E 116 124 97
E 116 133 94
E 116 140 104
E 116 142 106
E 116 143 100
E 116 145 108
E 116 146 103
E 116 148 102
E 116 152 101
E 117 118 108
E 117 119 97
E 117 126 100
E 117 130 96
E 117 131 97
E 117 136 97
E 117 137 100
E 117 138 108
E 117 153 99
E 117 155 100
E 117 159 108
E 117 160 93
E 118 121 102
E 118 124 101
E 118 129 109
E 118 134 102
E 118 136 97
E 118 143 101
E 118 144 101
E 118 154 100
E 118 158 92
E 119 124 87
E 119 126 87
E 119 148 100
E 119 150 101
E 119 153 106
E 119 156 90
E 120 122 107
E 120 124 109
E 120 125 100
E 120 143 113
E 120 147 93
E 120 155 90
E 120 157 103
E 120 160 106
E 121 128 105
E 121 134 101
E 121 135 99
E 121 136 100
E 121 144 99
E 121 149 96
E 121 156 99
E 121 158 97
E 122 123 97
E 122 132 103
E 122 139 92
E 122 144 96
E 122 145 96
E 122 153 102
E 122 159 111
E 123 124 97
E 123 131 94
E 123 132 104
E 123 140 89
E 123 144 102
E 123 148 93
E 123 151 96
E 124 127 99
E 124 131 111
E 124 137 94
E 124 144 90
E 124 147 95
E 124 149 117
E 124 150 100
E 124 153 100
E 124 154 97
E 125 130 99
E 125 131 101
E 125 135 99
E 125 144 103
E 125 147 105
E 125 151 96
E 125 154 114
E 125 158 104
E 126 128 103
E 126 134 100
E 126 135 95
E 126 136 97
E 126 139 99
E 126 144 99
E 127 129 103
E 127 130 98
E 127 131 101
E 127 132 107
E 127 133 108
E 127 134 102
E 127 139 109
E 127 141 93
E 127 142 111
E 127 148 101
E 128 131 99
E 128 145 101
E 128 148 102
E 128 154 89
E 128 155 94
E 128 158 97
E 129 133 97
E 129 134 99
E 129 135 99
E 129 140 96
E 129 144 92
E 129 146 101
E 129 158 96
E 129 160 96
E 130 134 100
E 130 139 96
E 130 148 103
E 130 150 94
E 130 155 109
E 131 134 97
E 131 141 99
E 131 145 104
E 131 149 89
E 131 153 106
E 131 159 92
E 132 135 96
E 132 149 103
E 133 134 95
E 133 145 94
E 133 149 95
E 133 150 98
E 133 153 98
E 133 155 93
E 134 145 99
E 134 146 101
E 134 152 94
E 134 153 103
E 134 159 101
E 135 147 101
E 135 155 104
E 135 156 99
E 135 158 97
E 135 159 94
E 135 160 111
E 136 141 101
E 136 150 97
E 136 156 98
E 136 157 101
E 136 160 101
E 137 140 102
E 137 141 100
E 137 146 97
E 137 147 97
E 137 152 99
E 137 159 89
E 137 160 101
E 138 144 98
E 138 152 99
E 138 157 104
E 138 158 97
E 138 160 100
E 139 147 94
E 139 152 99
E 139 158 102
E 140 147 97
E 141 142 96
E 141 147 96
E 141 149 99
E 141 154 111
E 143 146 98
E 143 147 104
E 143 148 94
E 143 149 93
E 143 151 102
E 144 146 102
E 144 149 104
E 144 159 101
E 145 154 89
E 145 157 106
E 145 159 100
E 146 149 97
E 146 156 89
E 146 157 115
E 146 160 101
E 147 150 98
E 148 149 94
E 148 151 92
E 148 156 94
E 148 159 98
E 149 154 98
E 150 153 101
E 150 157 102
E 151 155 103
E 156 157 106
E 157 160 89
E 158 159 90
END

SECTION Terminals
Terminals 12
T 1
T 2
T 3
T 4
T 5
T 6
T 7
T 8
T 9
T 10
T 11
T 12
END

EOF
